p cnf 18 10
-8 -11 -18 12 10 4 0
-7 -4 11 -5 8 0
-8 -17 -9 -11 0
-1 15 -10 -5 0
2 17 13 -18 0
12 -6 14 -3 -1 -16 -2 0
5 -1 10 2 -8 17 -16 0
-16 -8 -11 3 18 -17 0
-4 17 -9 -8 -1 -3 0
14 -8 -16 -1 -10 2 17 15 -12 0
